NAME : lrc107.1230145.tour
COMMENT : Cost = 0_1230145
COMMENT : Found by LKH [Keld Helsgaun] Fri Sep 15 17:42:02 2017
TYPE : TOUR
DIMENSION : 117
TOUR_SECTION
1
32
30
28
29
27
31
33
35
34
102
109
3
7
8
104
9
6
4
2
46
47
5
101
56
105
108
66
84
53
87
75
106
58
25
23
67
112
70
99
89
54
79
74
80
61
71
69
115
12
13
15
48
18
17
16
14
10
11
114
83
100
88
60
76
98
59
78
116
42
39
40
43
45
44
41
38
36
37
110
93
96
63
85
86
64
52
77
90
81
111
73
72
94
95
68
51
97
55
113
62
82
107
91
117
65
20
26
24
22
19
49
50
21
57
92
103
-1
EOF
